NAME : sample10
TYPE : TSP
DIMENSION : 20
EDGE_WEIGHT_TYPE : EUC_2D
NODE_COORD_SECTION
	0	-1,59	14,22
	1	6,62	-5,27
	2	17,73	3,07
	3	10,27	9,17
	4	-13,76	-6,33
	5	9,24	9,87
	6	-10,65	-1,37
	7	12,58	16,25
	8	1,52	1,07
	9	16,28	16,28
	10	-4,08	-10,57
	11	-12,71	-12,35
	12	-11,14	-3,03
	13	-18,46	-6,35
	14	-8,53	-16,37
	15	-7,11	-16,18
	16	17,59	-14,73
	17	5,98	-18,99
	18	-9,02	-15,27
	19	-5,88	-4,93
EOF